5727
9921
5177
9436
8149
8925
950
2189
1564
895
2665
2271
4037
1861
5867
7268
8706
7220
10176
4998
2481
8220
1731
9523
3651
1409
7595
6070
3467
7989
6559
4667
5413
2194
4092
4674
4408
3826
439
1738
6896
3335
7422
4670
8267
6142
3516
9876
4923
8327
5419
